VACCINE = Vaccine(1..4);
m = 24;
age = [AGED, AGED, YOUTH, CHILD, ANCIENT, YOUTH, SENIOR, CHILD, SENIOR, YOUTH, ADULT, SENIOR, SENIOR, ANCIENT, ANCIENT, ADULT, BABY, ANCIENT, YOUTH, AGED, BABY, ADULT, AGED, ADULT];
gender = [MALE, MALE, OTHER, OTHER, OTHER, FEMALE, FEMALE, FEMALE, FEMALE, OTHER, FEMALE, FEMALE, MALE, OTHER, MALE, FEMALE, FEMALE, MALE, OTHER, FEMALE, MALE, MALE, OTHER, MALE];
health = [POOR, COMPROMISED, GOOD, POOR, GOOD, GOOD, GOOD, COMPROMISED, POOR, GOOD, POOR, COMPROMISED, COMPROMISED, POOR, GOOD, COMPROMISED, POOR, POOR, POOR, GOOD, COMPROMISED, COMPROMISED, COMPROMISED, COMPROMISED];
exposure = [EXTREME, AVERAGE, LOW, AVERAGE, EXTREME, LOW, HIGH, LOW, LOW, LOW, LOW, HIGH, AVERAGE, HIGH, LOW, EXTREME, HIGH, HIGH, AVERAGE, HIGH, LOW, LOW, LOW, EXTREME];
size = [12, 12, 10, 11, 12, 13, 11, 10, 11, 13, 12, 13, 14, 13, 10, 10, 11, 12, 11, 14, 14, 14, 12, 9];
minsize = 9;
age_group_min = [0, 0, 1, 1, 0, 1, 0];
age_group_max = [12, 8, 18, 16, 12, 8, 9];
max_people_diff = 112;
max_share_vaccines = 4;
health_information = {8, 10, 19};
exposure_information = {5, 10, 20, 23};